<instance format="XCSP3" type="COP">
  <variables>
    <array id="x" size="[50]"> 0 1 </array>
  </variables>
  <constraints>
    <sum>
      <list> x[] </list>
      <coeffs> 37 15 36 45 31 5 19 50 1 35 1 13 9 12 46 13 12 39 8 30 43 25 34 2 19 5 40 1 27 12 24 24 30 42 36 43 19 7 47 35 26 31 24 48 34 46 13 40 27 3 </coeffs>
      <condition> (le,200) </condition>
    </sum>
  </constraints>
  <objectives>
    <maximize type="sum">
      <list> x[] </list>
      <coeffs> 13 46 95 71 45 53 9 66 27 58 75 26 97 30 73 6 21 6 30 48 55 53 38 21 15 97 81 22 32 99 77 95 88 87 98 57 9 2 26 99 7 19 88 38 27 82 41 60 46 56 </coeffs>
    </maximize>
  </objectives>
</instance>
